TSPLib/instances/tsp_30.tsp
NAME: tsp_30
TYPE: TSP
DIMENSION: 30
EDGE_WEIGHT_TYPE: EUC_2D
NODE_COORD_SECTION
1 59 104
2 33 257
3 55 384
4 86 150
5 10 241
6 90 354
7 5 266
8 76 292
9 60 100
10 69 115
11 96 271
12 61 95
13 6 32
14 70 386
15 55 321
16 95 291
17 0 77
18 71 154
19 55 371
20 84 161
21 34 318
22 62 328
23 14 310
24 35 221
25 93 212
26 11 6
27 57 125
28 55 201
29 54 35
30 78 58
EOF
